NAME: berlin52-24-2
TYPE: TSP
COMMENT: min_cost = 6391.89
DIMENSION: 24
EDGE_WEIGHT_TYPE: EUC_2D
NODE_COORD_SECTION
1 1605 620
2 555 815
3 410 250
4 975 580
5 830 485
6 145 665
7 480 415
8 1215 245
9 520 585
10 875 920
11 1340 725
12 580 1175
13 685 595
14 1320 315
15 845 655
16 25 230
17 830 610
18 510 875
19 1530 5
20 1150 1160
21 650 1130
22 725 370
23 1170 65
24 660 180
EOF
